************************************************************************
file with basedata            : mm47_.bas
initial value random generator: 936249927
************************************************************************
projects                      :  1
jobs (incl. supersource/sink ):  12
horizon                       :  74
RESOURCES
  - renewable                 :  2   R
  - nonrenewable              :  2   N
  - doubly constrained        :  0   D
************************************************************************
PROJECT INFORMATION:
pronr.  #jobs rel.date duedate tardcost  MPM-Time
    1     10      0       17        7       17
************************************************************************
PRECEDENCE RELATIONS:
jobnr.    #modes  #successors   successors
   1        1          3           2   3   4
   2        3          2           6   7
   3        3          2           5   6
   4        3          2           5   8
   5        3          1           9
   6        3          1           9
   7        3          3           8   9  11
   8        3          1          10
   9        3          1          12
  10        3          1          12
  11        3          1          12
  12        1          0        
************************************************************************
REQUESTS/DURATIONS:
jobnr. mode duration  R 1  R 2  N 1  N 2
------------------------------------------------------------------------
  1      1     0       0    0    0    0
  2      1     4      10   10    5    7
         2     6       8    6    4    4
         3     7       5    6    1    3
  3      1     5       8   10    3   10
         2     7       6    8    2   10
         3    10       4    8    2    9
  4      1     3       5    3    6    8
         2     4       4    2    4    8
         3     9       4    1    4    5
  5      1     2       6    7    9   10
         2     9       5    6    9    9
         3    10       4    3    8    9
  6      1     3       8    7   10    5
         2     5       8    7    9    2
         3     6       8    6    9    1
  7      1     5      10    7    9    5
         2     8       5    7    9    5
         3     9       2    6    6    5
  8      1     1       6    2    4    7
         2     2       6    2    2    6
         3     5       6    1    1    5
  9      1     1       4    3    9    7
         2     3       3    2    5    7
         3     3       3    1    7    7
 10      1     7       7    6    8    7
         2     8       7    5    6    6
         3     8       7    5    4    7
 11      1     1       2    8    9    9
         2     6       2    7    9    8
         3     7       1    7    8    6
 12      1     0       0    0    0    0
************************************************************************
RESOURCEAVAILABILITIES:
  R 1  R 2  N 1  N 2
   16   16   65   69
************************************************************************
MAXIMAL LAGS:
from  to  type  delay
    1   12   ES      0
    1    2   ES      0
    2   12   ES      0
    1    3   ES      0
    3   12   ES      0
    1    4   ES      0
    4   12   ES      0
    1    5   ES      0
    5   12   ES      0
    1    6   ES      0
    6   12   ES      0
    1    7   ES      0
    7   12   ES      0
    1    8   ES      0
    8   12   ES      0
    1    9   ES      0
    9   12   ES      0
    1   10   ES      0
   10   12   ES      0
    1   11   ES      0
   11   12   ES      0
    1   12   ES      0
    2    6   SS      5
    2    6   SE     -6
    2    6   ES     12
    2    6   EE      8
    2    7   SS     -9
    2    7   SE      7
    2    7   ES      7
    2    7   EE     -2
    3    5   SS     -8
    3    5   SE      7
    3    5   ES      5
    3    5   EE    -12
    3    6   SS     11
    3    6   SE    -12
    6    3   SE      0
    3    6   ES      0
    3    6   EE    -10
    4    5   SS     12
    4    5   SE     10
    4    5   ES     -2
    4    5   EE     -1
    4    8   SS     12
    4    8   SE     12
    4    8   ES      5
    4    8   EE    -10
    5    9   SS      8
    5    9   SE    -11
    5    9   ES      4
    5    9   EE     -6
    6    9   SS     -1
    6    9   SE      5
    6    9   ES     -6
    6    9   EE     -7
    7    8   SS      5
    7    8   SE      0
    7    8   ES     10
    7    8   EE     -5
    7    9   SS     -3
    7    9   SE     -7
    7    9   ES     -1
    7    9   EE     -2
    7   11   SS      1
    7   11   SE     -6
    7   11   ES      5
    7   11   EE     11
    8   10   SS     -5
    8   10   SE    -12
    8   10   ES    -11
    8   10   EE    -12
************************************************************************
